DIMENSION: 20
EDGE_WEIGHT_TYPE: EXPLICIT
EDGE_WEIGHT_FORMAT: FULL_MATRIX
EDGE_WEIGHT_SECTION:
32767 77 62 98 44 32767 38 6 32767 32767 32767 32767 32767 32767 63 32767 32767 32767 32767 32767 
77 32767 32767 32767 61 32767 90 32767 32767 32767 32767 32767 32767 65 32767 32767 72 32767 32767 32767 
62 32767 32767 90 32767 55 32767 97 32767 32767 32767 32767 32767 32767 32767 32767 27 32767 32767 32767 
98 32767 90 32767 50 32767 32767 14 32767 32767 36 49 32767 32767 32767 32767 32767 32767 32767 32767 
44 61 32767 50 32767 32767 32767 32767 63 32767 32767 32767 32767 16 32767 32767 32767 52 32767 32767 
32767 32767 55 32767 32767 32767 32767 32767 18 79 32767 32767 32767 32767 61 32767 46 32767 9 32767 
38 90 32767 32767 32767 32767 32767 32767 46 32767 32767 32767 32767 63 32767 32767 19 32767 32767 32767 
6 32767 97 14 32767 32767 32767 32767 50 32767 32767 32767 32767 32767 32767 32767 32767 2 90 7 
32767 32767 32767 32767 63 18 46 50 32767 32767 90 93 32767 55 32767 32767 41 32767 32767 32767 
32767 32767 32767 32767 32767 79 32767 32767 32767 32767 32767 32767 32767 32767 32767 8 32767 60 32767 32767 
32767 32767 32767 36 32767 32767 32767 32767 90 32767 32767 32767 83 32767 32767 32767 32767 10 32767 16 
32767 32767 32767 49 32767 32767 32767 32767 93 32767 32767 32767 32767 46 32767 32767 59 32767 37 18 
32767 32767 32767 32767 32767 32767 32767 32767 32767 32767 83 32767 32767 32767 32767 32767 32767 66 44 29 
32767 65 32767 32767 16 32767 63 32767 55 32767 32767 46 32767 32767 32767 45 94 32767 32767 32767 
63 32767 32767 32767 32767 61 32767 32767 32767 32767 32767 32767 32767 32767 32767 32767 32767 32767 32767 32767 
32767 32767 32767 32767 32767 32767 32767 32767 32767 8 32767 32767 32767 45 32767 32767 12 32767 32767 32767 
32767 72 27 32767 32767 46 19 32767 41 32767 32767 59 32767 94 32767 12 32767 32767 32767 71 
32767 32767 32767 32767 52 32767 32767 2 32767 60 10 32767 66 32767 32767 32767 32767 32767 3 32767 
32767 32767 32767 32767 32767 9 32767 90 32767 32767 32767 37 44 32767 32767 32767 32767 3 32767 21 
32767 32767 32767 32767 32767 32767 32767 7 32767 32767 16 18 29 32767 32767 32767 71 32767 21 32767 
EOF